c instance by G2
c solution = 0101100100101001101
c Known solution cost is 935 
p cnf 19 30
w 38 66 73 53 17 69 54 14 14 52 70 64 6 49 29 82 91 90 4
4 1 -8 0
12 -14 -16 0
-8 -13 -1 0
5 13 9 0
-7 15 -16 0
-2 -15 9 0
-4 -11 16 0
-5 12 17 0
19 15 3 0
11 -6 -18 0
11 -5 14 0
-7 6 18 0
6 2 -3 0
-5 15 -3 0
-18 11 -4 0
-11 3 -14 0
10 13 -17 0
-16 11 1 0
8 12 -11 0
-9 19 -4 0
-5 -8 17 0
1 -6 18 0
-10 -16 3 0
-9 -16 -1 0
-5 -19 -9 0
3 -16 2 0
7 -12 -5 0
-18 -8 14 0
5 3 12 0
-1 -19 18 0
